p cnf 23 11
a 1 0
e 2 0
a 3 0
e 4 0
a 5 0
e 6 7 0
a 8 0
e 9 10 0
a 11 0
e 12 13 14 0
a 15 16 17 0
e 18 19 20 0
a 21 22 23 0
-8 13 -16 -17 0
5 23 -19 0
-1 11 -15 -2 0
-10 -14 -16 18 21 0
20 1 2 10 0
9 -16 -4 -18 12 0
-19 -7 2 15 0
22 -16 14 17 1 0
-5 -6 11 -12 0
-9 -15 0
17 23 -9 -15 -6 0
